
Gurobi 10.0.0 (win64, gurobi_cl) logging started Fri Dec 22 18:27:27 2023

Set parameter Username
Set parameter LogFile to value "gurobi.log"

Gurobi 10.0.0 (win64, gurobi_cl) logging started Fri Dec 22 18:32:05 2023

Set parameter Username
Set parameter LogFile to value "gurobi.log"

Gurobi 10.0.0 (win64, gurobi_cl) logging started Fri Dec 22 18:32:55 2023

Set parameter Username
Set parameter LogFile to value "gurobi.log"

Gurobi 10.0.0 (win64, gurobi_cl) logging started Fri Dec 22 18:36:48 2023

Set parameter Username
Set parameter LogFile to value "gurobi.log"

Gurobi 10.0.3 (win64, gurobi_cl) logging started Sun Dec 24 22:03:29 2023

Set parameter WLSAccessID
Set parameter WLSSecret
Set parameter LicenseID to value 2419901
Set parameter LogFile to value "gurobi.log"
Academic license 2419901 - for non-commercial use only - registered to vi___@unibo.it
Using license file C:\gurobi1003\win64\bin\gurobi.lic

Gurobi 10.0.0 (win64, gurobi_cl) logging started Sat May 25 15:07:16 2024

Set parameter Username
Set parameter LogFile to value "gurobi.log"
